p tw 292 420
1 2
1 33
1 34
3 4
3 34
3 35
5 6
5 45
7 8
7 46
9 10
9 47
11 12
11 48
13 14
13 36
13 37
15 16
15 37
15 38
17 18
17 39
17 40
19 20
19 40
19 41
21 22
21 49
23 24
23 50
25 26
25 51
27 28
27 52
29 30
29 42
29 43
31 32
31 43
31 44
33 34
33 59
34 35
35 60
36 37
36 56
36 57
37 38
38 61
39 40
39 54
39 55
40 41
41 62
42 43
42 63
43 44
44 64
45 66
45 67
46 94
46 95
47 53
47 54
48 97
48 98
49 57
49 58
50 87
50 88
51 102
51 103
52 82
52 83
53 54
53 72
54 55
55 75
56 57
56 73
57 58
58 69
58 70
59 71
60 65
60 66
61 74
62 68
62 69
63 76
64 77
65 66
65 90
66 67
67 84
67 85
68 69
68 81
68 82
69 70
70 92
71 78
71 79
72 79
72 80
73 85
73 86
74 113
74 114
75 91
76 129
76 130
77 88
77 89
78 79
78 105
79 80
80 96
80 97
81 82
81 108
82 83
83 103
83 104
84 85
84 93
84 94
85 86
86 107
87 88
87 100
87 101
88 89
89 109
90 106
91 139
91 140
92 99
92 100
93 94
93 117
94 95
95 118
96 97
96 119
97 98
98 110
98 111
99 100
99 121
100 101
101 114
101 115
102 103
102 122
103 104
104 123
105 116
106 142
106 143
107 120
108 111
108 112
109 124
110 111
110 125
110 126
111 112
112 135
113 114
113 134
114 115
115 137
116 155
116 156
117 131
118 132
119 133
120 126
120 127
121 136
122 138
123 128
123 129
124 165
124 166
125 126
125 143
125 144
126 127
127 151
128 129
128 154
129 130
130 146
130 147
131 188
131 189
132 148
132 149
133 172
133 173
134 149
134 150
135 152
136 145
136 146
137 153
138 140
138 141
139 140
139 161
139 162
140 141
141 170
142 143
142 156
142 157
143 144
144 168
145 146
145 169
146 147
147 164
147 165
148 149
148 167
149 150
150 159
150 160
151 158
151 159
152 162
152 163
153 209
153 210
154 171
155 156
155 178
156 157
157 179
158 159
158 175
158 176
159 160
160 182
161 162
161 173
161 174
162 163
163 183
164 165
164 185
165 166
166 186
167 180
168 181
169 176
169 177
170 184
171 204
171 205
172 173
172 194
173 174
174 197
175 176
175 195
176 177
177 191
177 192
178 193
179 187
179 188
180 216
180 217
181 219
181 220
182 196
183 190
183 191
184 224
184 225
185 198
186 199
187 188
187 212
188 189
189 206
189 207
190 191
190 203
190 204
191 192
192 214
193 200
193 201
194 201
194 202
195 207
195 208
196 235
196 236
197 213
198 251
198 252
199 210
199 211
200 201
200 227
201 202
202 218
202 219
203 204
203 230
204 205
205 225
205 226
206 207
206 215
206 216
207 208
208 229
209 210
209 222
209 223
210 211
211 231
212 228
213 261
213 262
214 221
214 222
215 216
215 239
216 217
217 240
218 219
218 241
219 220
220 232
220 233
221 222
221 243
222 223
223 236
223 237
224 225
224 244
225 226
226 245
227 238
228 264
228 265
229 242
230 233
230 234
231 246
232 233
232 247
232 248
233 234
234 257
235 236
235 256
236 237
237 259
238 277
239 253
240 254
241 255
242 248
242 249
243 258
244 260
245 250
245 251
246 292
247 248
247 265
247 266
248 249
249 273
250 251
250 276
251 252
252 268
252 269
253 279
254 270
254 271
255 281
256 271
256 272
257 274
258 267
258 268
259 275
260 262
260 263
261 262
261 285
262 263
263 289
264 265
264 278
265 266
266 282
267 268
267 287
268 269
269 291
270 271
270 280
271 272
272 284
273 283
274 286
275 288
276 290
